(set-logic QF_S)
(declare-fun var0 () String)
(assert (str.in.re var0 (re.++ (re.+ (re.* (str.to.re "0"))) (re.++ (re.union (re.* (str.to.re "1")) (re.* (str.to.re "22"))) (re.++ (re.* (re.+ (str.to.re "3"))) (re.++ (re.+ (re.+ (str.to.re "444"))) (re.++ (re.+ (re.union (str.to.re "55") (str.to.re "6"))) (re.++ (re.union (re.union (str.to.re "7") (str.to.re "888")) (re.union (str.to.re "999") (str.to.re "aa"))) (re.++ (re.+ (re.+ (str.to.re "bb"))) (re.++ (re.* (re.* (str.to.re "c"))) (re.++ (re.* (re.+ (str.to.re "ddd"))) (re.+ (re.+ (str.to.re "eee"))))))))))))))
(assert (<= 301 (str.len var0)))
(check-sat)